
Gurobi 6.0.4 (win64) logging started 06/16/15 20:53:10

Read LP format model from file E:\Eigene Dateien\Downloads\Michi shit\VRPTWMS-master\VRPTWMS\instances\mip\fuel\N10-C_DV100-C_SV25_F5_9_No_1.lp
Reading time = 0.01 seconds
(null): 621 rows, 298 columns, 2643 nonzeros
Optimize a model with 621 rows, 298 columns and 2643 nonzeros
Model has 1100 quadratic constraints
WARNING: Only barrier available for SOCP models
Coefficient statistics:
  Matrix range    [1e+00, 1e+06]
  Objective range [1e+04, 1e+07]
  Bounds range    [1e+00, 1e+06]
  RHS range       [1e+00, 1e+06]
Presolve removed 68 rows and 39 columns
Presolve time: 0.09s
Presolved: 2255 rows, 1144 columns, 11289 nonzeros
Variable types: 817 continuous, 327 integer (274 binary)
Optimize a model with 2255 rows, 1144 columns and 11289 nonzeros
Coefficient statistics:
  Matrix range    [1e+00, 1e+06]
  Objective range [1e+04, 1e+07]
  Bounds range    [1e+00, 1e+06]
  RHS range       [1e+00, 1e+06]

Concurrent LP optimizer: dual simplex and barrier
Showing barrier log only...

Presolve removed 190 rows and 125 columns
Presolved: 2065 rows, 1021 columns, 10388 nonzeros

Root barrier log...

Ordering time: 0.00s

Barrier performed 0 iterations in 0.10 seconds
Barrier solve interrupted - model solved by another algorithm


Solved with dual simplex
Solved in 81 iterations and 0.10 seconds
Optimal objective  1.220515860e+07

Root relaxation: objective 1.220516e+07, 81 iterations, 0.02 seconds

    Nodes    |    Current Node    |     Objective Bounds      |     Work
 Expl Unexpl |  Obj  Depth IntInf | Incumbent    BestBd   Gap | It/Node Time

     0     0 1.2205e+07    0   33          - 1.2205e+07      -     -    0s
     0     0 1.7152e+07    0   37          - 1.7152e+07      -     -    0s
     0     0 2.1892e+07    0   30          - 2.1892e+07      -     -    0s
     0     0 2.2022e+07    0   28          - 2.2022e+07      -     -    0s
     0     0 2.2022e+07    0   32          - 2.2022e+07      -     -    0s
     0     0 2.2022e+07    0   28          - 2.2022e+07      -     -    0s
     0     0 2.2022e+07    0   26          - 2.2022e+07      -     -    0s
     0     0 2.2022e+07    0   25          - 2.2022e+07      -     -    0s
     0     0 2.2022e+07    0   24          - 2.2022e+07      -     -    0s
     0     0 2.2022e+07    0   25          - 2.2022e+07      -     -    0s
     0     0 2.2022e+07    0   24          - 2.2022e+07      -     -    0s
     0     0 2.2022e+07    0   24          - 2.2022e+07      -     -    0s
H    0     0                    1.050337e+08 2.2022e+07  79.0%     -    0s
     0     0 2.2022e+07    0   24 1.0503e+08 2.2022e+07  79.0%     -    0s
H    0     0                    6.376390e+07 2.2022e+07  65.5%     -    0s
     0     2 2.2022e+07    0   24 6.3764e+07 2.2022e+07  65.5%     -    0s
H   37    31                    5.369870e+07 2.2034e+07  59.0%  19.4    0s
H  185   166                    4.362360e+07 2.2034e+07  49.5%  22.4    0s
*  196   177              26    4.344120e+07 2.2034e+07  49.3%  23.4    0s
H  242   200                    4.342090e+07 2.2034e+07  49.3%  24.2    0s
H  249   201                    4.327140e+07 2.2069e+07  49.0%  24.2    0s
H  386   304                    4.325110e+07 2.2102e+07  48.9%  23.1    0s
*  455   331              25    3.361870e+07 2.2102e+07  34.3%  24.6    0s
*  456   331              25    3.361690e+07 2.2102e+07  34.3%  24.6    0s
H  495   332                    3.357510e+07 2.2146e+07  34.0%  24.5    0s
H  572   368                    3.320960e+07 2.2190e+07  33.2%  24.2    0s
H  797   515                    3.317500e+07 2.2200e+07  33.1%  23.7    0s
H 1070   623                    3.310330e+07 2.2320e+07  32.6%  22.7    1s
H 1144   638                    3.309680e+07 2.2320e+07  32.6%  26.3    2s
  2205   827 2.2845e+07   27   34 3.3097e+07 2.2427e+07  32.2%  46.9    5s
* 2227   785              30    3.301900e+07 2.2427e+07  32.1%  47.0    5s
H 3054   982                    3.294000e+07 2.2481e+07  31.8%  52.0    7s
  5413  1592 infeasible   28      3.2940e+07 2.2601e+07  31.4%  61.7   10s
  8421  1852 2.8236e+07   33   45 3.2940e+07 2.2765e+07  30.9%  70.9   15s
 11390  1961 2.3131e+07   25   21 3.2940e+07 2.2903e+07  30.5%  77.2   20s
 14717  1579 infeasible   30      3.2940e+07 2.3080e+07  29.9%  83.8   25s
 16649  1061     cutoff   35      3.2940e+07 2.3271e+07  29.4%  87.4   30s
 19375   354 2.5364e+07   34   59 3.2940e+07 2.4789e+07  24.7%  92.1   35s

Cutting planes:
  Gomory: 5
  Cover: 3
  Implied bound: 10
  Clique: 5
  MIR: 5
  Flow cover: 5
  GUB cover: 2
  Zero half: 26

Explored 21915 nodes (1986813 simplex iterations) in 38.04 seconds
Thread count was 4 (of 4 available processors)

Optimal solution found (tolerance 1.00e-04)
Best objective 3.294000000000e+07, best bound 3.294000000000e+07, gap 0.0%
k_c1	60000.0
k_c10	140000.0
k_c2	30000.0
k_c3	880000.0
k_c4	80000.0
k_c5	110000.0
k_c6	140000.0
k_c7	20000.0
k_c8	60000.0
k_c9	170000.0
k_dN	-0.0
o_1	-0.0
o_10	0.0
o_2	0.0
o_3	-0.0
o_4	-0.0
o_5	1.0
o_6	-0.0
o_7	0.0
o_8	-0.0
o_9	-0.0
p_1	0.0
p_10	-0.0
p_2	0.0
p_3	0.0
p_4	0.0
p_5	1.0
p_6	0.0
p_7	0.0
p_8	0.0
p_9	1.0
phi_c1	20491.0
phi_c10	43197.0
phi_c2	17146.0
phi_c3	43691.0
phi_c4	21434.0
phi_c5	-0.0
phi_c6	23467.0
phi_c7	36861.0
phi_c8	39617.0
phi_c9	30819.0
phi_dN	-0.0
pi_c1	-0.0
pi_c10	200000.0
pi_c2	100000.0
pi_c3	200000.0
pi_c4	-0.0
pi_c5	150000.0
pi_c6	200000.0
pi_c7	200000.0
pi_c8	200000.0
pi_c9	50000.0
pi_dN	-0.0
tauD_c1	767500.0
tauD_c10	512650.0
tauD_c2	850000.0
tauD_c3	100000.0
tauD_c4	693975.0
tauD_c5	261375.0
tauD_c6	99150.0
tauD_c7	650000.0
tauD_c8	450000.0
tauD_c9	379600.0
tauD_d0	-0.0
tauD_dN	1000000.0
tauS_c1	12500.0
tauS_c10	97250.0
tauS_c2	0.0
tauS_c3	100150.0
tauS_c4	16000.0
tauS_c5	74575.0
tauS_c6	105125.0
tauS_c7	80975.0
tauS_c8	115800.0
tauS_c9	409600.0
tauS_d0	-0.0
tauS_dN	517550.0
x_c10_c4	1.0
x_c1_c2	1.0
x_c2_dN	1.0
x_c3_c9	1.0
x_c4_c1	1.0
x_c5_c8	1.0
x_c6_c5	1.0
x_c7_dN	1.0
x_c8_c7	1.0
x_c9_c10	1.0
x_d0_c3	1.0
x_d0_c6	1.0
z_c5_c9	1.0
z_c9_dN	1.0
z_d0_c5	1.0
